
Gurobi 6.5.2 (win64) logging started 10/10/16 16:28:40

Optimize a model with 4 rows, 13 columns and 40 nonzeros
Coefficient statistics:
  Matrix range    [1e+00, 2e+03]
  Objective range [9e-01, 3e+00]
  Bounds range    [7e+01, 2e+03]
  RHS range       [0e+00, 0e+00]
Presolve removed 0 rows and 3 columns
Presolve time: 0.13s
Presolved: 4 rows, 10 columns, 37 nonzeros

Iteration    Objective       Primal Inf.    Dual Inf.      Time
       0    0.0000000e+00   4.601563e+00   0.000000e+00      0s
       4    1.1828861e+01   0.000000e+00   0.000000e+00      0s

Solved in 4 iterations and 0.27 seconds
Optimal objective  1.182886111e+01
Optimize a model with 5 rows, 13 columns and 42 nonzeros
Coefficient statistics:
  Matrix range    [1e+00, 2e+03]
  Objective range [9e-01, 3e+00]
  Bounds range    [7e+01, 2e+03]
  RHS range       [6e+00, 6e+00]
Iteration    Objective       Primal Inf.    Dual Inf.      Time
       0    1.1828861e+01   3.561458e+00   0.000000e+00      0s

Solved in 0 iterations and 0.03 seconds
Infeasible model
Optimize a model with 4 rows, 13 columns and 40 nonzeros
Coefficient statistics:
  Matrix range    [1e+00, 2e+03]
  Objective range [9e-01, 3e+00]
  Bounds range    [7e+01, 2e+03]
  RHS range       [0e+00, 0e+00]
Presolve removed 0 rows and 3 columns
Presolve time: 0.01s
Presolved: 4 rows, 10 columns, 37 nonzeros

Iteration    Objective       Primal Inf.    Dual Inf.      Time
       0    0.0000000e+00   4.601563e+00   0.000000e+00      0s
       4    1.1828861e+01   0.000000e+00   0.000000e+00      0s

Solved in 4 iterations and 0.02 seconds
Optimal objective  1.182886111e+01
Optimize a model with 5 rows, 13 columns and 42 nonzeros
Coefficient statistics:
  Matrix range    [1e+00, 2e+03]
  Objective range [9e-01, 3e+00]
  Bounds range    [7e+01, 2e+03]
  RHS range       [6e+00, 6e+00]
Iteration    Objective       Primal Inf.    Dual Inf.      Time
       0    1.1828861e+01   3.561458e+00   0.000000e+00      0s

Solved in 0 iterations and 0.01 seconds
Infeasible model
